15
1 0 8
2 0 5
3 0 5
3 1 8
3 2 5
5 0 12
5 3 3
5 4 9
6 0 7
6 3 4
6 4 7
6 5 5
7 0 1
7 1 13
7 5 6
7 6 12
8 2 12
8 4 2
8 5 8
8 7 4
9 1 10
9 3 13
9 4 8
9 5 9
9 7 12
9 8 3
10 0 9
10 1 9
10 2 8
10 7 7
10 8 12
11 1 4
11 4 12
11 5 9
11 9 3
12 2 5
12 4 7
12 6 2
12 7 8
12 11 2
13 1 1
13 2 9
13 3 7
13 4 13
13 6 13
13 8 5
13 12 11
14 0 1
14 1 2
14 3 9
14 4 5
14 5 6
14 9 8
14 10 6
14 12 13
14 13 1
